12
48
1105
1060
902
1052
840
1010
830
1022
1061
1090
881
434
78	99
347	334
419	417
646	657
244	151
568	624
821	757
876	860
130	162
654	600
646	689
952	1038
984	1020
276	330
377	318
725	671
178	259
755	726
436	389
98	90
277	238
570	517
634	668
865	799
88	60
108	106
186	101
169	97
767	784
802	746
526	493
216	238
228	207
901	966
570	497
202	286
315	329
19	81
911	1010
538	516
609	652
127	227
83	85
474	520
916	920
194	285
204	170
865	901
